1 1 2 0
1 -1 -3 0
1 -1 4 0
1 1 -5 0
1 1 -6 0
1 2 3 0
1 -2 4 0
1 -2 -1 0
1 2 6 0
1 7 8 0
1 -7 9 0
1 -7 10 0
1 -7 3 0
1 -7 -4 0
1 -7 -11 0
1 7 12 0
1 -7 5 0
1 7 6 0
1 -10 -8 0
1 10 -9 0
1 -10 3 0
1 -10 -4 0
1 10 11 0
1 10 -12 0
1 10 -7 0
1 -10 5 0
1 -10 6 0
1 4 -13 0
1 4 14 0
1 -4 10 0
1 -4 2 0
1 4 15 0
1 4 -16 0
1 -4 17 0
1 -4 -18 0
1 -4 1 0
1 -4 6 0
1 -6 -19 0
1 -6 -20 0
1 -6 -14 0
1 6 -2 0
1 -6 4 0
1 6 16 0
1 6 17 0
1 3 13 0
1 3 21 0
1 -3 22 0
1 -3 2 0
1 -3 -23 0
1 -3 -16 0
1 3 -24 0
1 3 25 0
1 3 7 0
1 3 5 0
1 5 -22 0
1 -5 2 0
1 -5 -3 0
1 -5 16 0
1 -5 25 0
1 5 -1 0
1 18 -8 0
1 18 14 0
1 -18 4 0
1 -18 -11 0
1 -18 -12 0
1 -18 -25 0
1 18 6 0
1 14 8 0
1 14 -9 0
1 14 -22 0
1 14 4 0
1 -14 11 0
1 14 -12 0
1 14 18 0
1 17 -8 0
1 17 -9 0
1 17 -20 0
1 17 -26 0
1 17 -27 0
1 -17 4 0
1 17 -11 0
1 -17 -24 0
1 -17 28 0
1 -17 6 0
1 20 -8 0
1 -20 -9 0
1 20 -26 0
1 -20 -21 0
1 20 27 0
1 -20 4 0
1 -20 -12 0
1 20 17 0
1 -20 6 0
1 -12 -29 0
1 -12 -30 0
1 -12 9 0
1 12 10 0
1 12 31 0
1 12 32 0
1 12 17 0
1 12 18 0
1 12 -33 0
1 -9 -20 0
1 9 14 0
1 9 10 0
1 -9 -34 0
1 9 12 0
1 -9 17 0
1 -9 -18 0
1 -9 7 0
1 -9 33 0
1 11 8 0
1 11 20 0
1 11 14 0
1 -11 10 0
1 -11 16 0
1 11 -17 0
1 -11 18 0
1 11 -7 0
1 -11 -33 0
1 -8 35 0
1 -8 -13 0
1 8 -14 0
1 -8 11 0
1 8 36 0
1 8 16 0
1 8 -18 0
1 8 -7 0
1 8 33 0
1 34 26 0
1 -34 27 0
1 34 -16 0
1 34 -37 0
1 -34 28 0
1 -30 9 0
1 30 -13 0
1 30 26 0
1 -30 27 0
1 30 34 0
1 30 37 0
1 32 29 0
1 32 -9 0
1 32 26 0
1 -32 -27 0
1 32 -36 0
1 32 12 0
1 -32 -37 0
1 -32 -28 0
1 -29 -35 0
1 -29 -9 0
1 29 26 0
1 29 27 0
1 29 -28 0
1 -28 30 0
1 -28 -20 0
1 28 -27 0
1 28 -32 0
1 -28 -34 0
1 -28 -17 0
1 -27 -29 0
1 27 30 0
1 27 -20 0
1 -27 -32 0
1 -27 -34 0
1 -27 -28 0
1 37 -30 0
1 -37 26 0
1 37 38 0
1 37 32 0
1 -37 -34 0
1 37 -17 0
1 -37 -39 0
1 -37 -33 0
1 -26 29 0
1 -26 30 0
1 -26 -20 0
1 -26 38 0
1 26 31 0
1 -26 34 0
1 -26 -17 0
1 -26 -37 0
1 -26 -39 0
1 25 40 0
1 -25 -22 0
1 25 41 0
1 -25 3 0
1 25 -42 0
1 25 -5 0
1 -22 40 0
1 -22 -14 0
1 22 -41 0
1 22 -3 0
1 22 43 0
1 22 42 0
1 22 5 0
1 24 21 0
1 24 -40 0
1 -24 -41 0
1 -24 44 0
1 -24 45 0
1 24 -43 0
1 24 -17 0
1 24 -42 0
1 24 -46 0
1 24 -47 0
1 -24 5 0
1 21 42 0
1 -21 -40 0
1 21 -45 0
1 21 3 0
1 21 43 0
1 -21 -24 0
1 21 46 0
1 -21 47 0
1 41 -42 0
1 -41 35 0
1 41 13 0
1 -41 -21 0
1 41 22 0
1 41 36 0
1 41 -25 0
1 42 35 0
1 42 13 0
1 -42 21 0
1 42 22 0
1 -42 -41 0
1 -42 -36 0
1 -42 -16 0
1 42 24 0
1 -42 25 0
1 40 -21 0
1 40 -22 0
1 -40 -24 0
1 -40 -25 0
1 43 -21 0
1 -43 40 0
1 43 22 0
1 43 -24 0
1 -43 -25 0
1 -16 8 0
1 -16 13 0
1 -16 -41 0
1 16 45 0
1 16 3 0
1 -16 -4 0
1 -16 11 0
1 -16 34 0
1 16 -42 0
1 -16 46 0
1 16 -47 0
1 -16 5 0
1 -16 6 0
1 -13 8 0
1 13 30 0
1 13 -41 0
1 -13 44 0
1 13 -45 0
1 -13 3 0
1 -13 -4 0
1 13 -11 0
1 13 -16 0
1 -13 -46 0
1 -13 47 0
1 13 5 0
1 36 19 0
1 36 -8 0
1 -36 35 0
1 36 41 0
1 -36 44 0
1 36 -45 0
1 -36 11 0
1 36 32 0
1 36 -42 0
1 36 -46 0
1 -36 47 0
1 -35 19 0
1 35 29 0
1 35 8 0
1 -35 -41 0
1 -35 -44 0
1 -35 -45 0
1 -35 -15 0
1 35 -11 0
1 35 42 0
1 -35 46 0
1 -35 -47 0
1 35 -48 0
1 -45 13 0
1 -45 21 0
1 45 38 0
1 -45 31 0
1 45 -36 0
1 -45 16 0
1 -45 -24 0
1 -45 -47 0
1 -45 -39 0
1 -45 -33 0
1 -47 35 0
1 47 13 0
1 47 -21 0
1 47 45 0
1 -47 -31 0
1 -47 36 0
1 47 16 0
1 47 -24 0
1 -47 33 0
1 -44 -35 0
1 44 21 0
1 44 16 0
1 -44 -46 0
1 -46 -35 0
1 -46 13 0
1 46 21 0
1 46 44 0
1 46 -16 0
1 -46 -24 0
1 -31 -19 0
1 31 -8 0
1 -31 -9 0
1 -31 23 0
1 -31 15 0
1 31 -37 0
1 -31 -47 0
1 31 48 0
1 33 19 0
1 33 26 0
1 -33 -45 0
1 33 23 0
1 -33 -15 0
1 33 11 0
1 33 -37 0
1 -33 -47 0
1 33 48 0
1 -38 -19 0
1 -38 -26 0
1 -38 -45 0
1 38 -23 0
1 -38 -37 0
1 -38 47 0
1 -38 48 0
1 -39 -19 0
1 -39 -26 0
1 -39 -45 0
1 39 38 0
1 -39 23 0
1 39 15 0
1 39 37 0
1 -15 35 0
1 15 38 0
1 15 31 0
1 -15 -4 0
1 -15 -36 0
1 15 -39 0
1 -19 -35 0
1 19 -38 0
1 19 31 0
1 -19 -15 0
1 -19 36 0
1 -19 6 0
1 19 39 0
1 -19 -33 0
1 -23 -35 0
1 23 38 0
1 23 -3 0
1 23 36 0
1 -23 48 0
1 -23 33 0
1 -48 -35 0
1 -48 -23 0
1 48 -31 0
1 48 36 0
1 -48 5 0
